53399
40 43 1279
43 3 1096
3 6 385
6 28 404
28 55 487
55 26 397
26 54 967
54 34 401
34 47 702
47 30 944
30 4 380
4 18 606
18 12 768
12 9 723
9 14 471
14 2 433
2 45 787
45 42 1302
42 33 4807
33 1 7621
1 27 4123
27 31 4460
31 25 299
25 11 545
11 52 1009
52 15 631
15 36 679
36 46 402
46 39 214
39 16 451
16 10 734
10 22 117
22 29 544
29 21 516
21 23 176
23 53 388
53 17 938
17 48 415
48 49 761
49 19 934
19 44 1282
44 38 690
38 8 368
8 32 678
32 41 362
41 13 686
13 51 644
51 5 736
5 35 323
35 24 296
24 50 868
50 20 763
20 37 714
37 7 517
7 40 1176
